min: c;

c = 3.89484478885192 * u4_t1_h1 + 3.97191923675933 * u4_t1_h2 + 2.79476251490324 * u4_t1_h3 + 3.11765216784293 * u4_t1_h4 + 3.11765216784293 * u4_t10_h4 + 3.50892018854615 * u4_t1_h5 + 3.50892018854615 * u4_t10_h5 + 3.89134475170996 * u4_t1_h6 + 3.89134475170996 * u4_t10_h6 + 4.49537132046714 * u4_t1_h7 + 4.49537132046714 * u4_t10_h7 + 5.27101404592074 * u4_t1_h8 + 5.27101404592074 * u4_t9_h8 + 5.27101404592074 * u4_t10_h8 + 5.05751815955091 * u4_t9_h9 + 5.05751815955091 * u4_t10_h9 + 5.07686193212754 * u4_t9_h10 + 5.07686193212754 * u4_t10_h10 + 3.94057501369126 * u4_t2_h11 + 3.94057501369126 * u4_t4_h11 + 3.94057501369126 * u4_t9_h11 + 3.94057501369126 * u4_t10_h11 + 6.07305774432699 * u4_t2_h12 + 6.07305774432699 * u4_t3_h12 + 6.07305774432699 * u4_t4_h12 + 6.07305774432699 * u4_t8_h12 + 6.07305774432699 * u4_t9_h12 + 6.07305774432699 * u4_t10_h12 + 4.37092739346687 * u4_t2_h13 + 4.37092739346687 * u4_t3_h13 + 4.37092739346687 * u4_t4_h13 + 4.37092739346687 * u4_t8_h13 + 4.37092739346687 * u4_t9_h13 + 5.19649107744791 * u4_t2_h14 + 5.19649107744791 * u4_t3_h14 + 5.19649107744791 * u4_t4_h14 + 5.19649107744791 * u4_t8_h14 + 5.19649107744791 * u4_t9_h14 + 6.35478031825008 * u4_t2_h15 + 6.35478031825008 * u4_t3_h15 + 6.35478031825008 * u4_t4_h15 + 6.35478031825008 * u4_t8_h15 + 6.35478031825008 * u4_t9_h15 + 6.13758066110225 * u4_t2_h16 + 6.13758066110225 * u4_t3_h16 + 6.13758066110225 * u4_t4_h16 + 6.13758066110225 * u4_t5_h16 + 6.13758066110225 * u4_t8_h16 + 6.13758066110225 * u4_t9_h16 + 6.13345458629035 * u4_t2_h17 + 6.13345458629035 * u4_t3_h17 + 6.13345458629035 * u4_t5_h17 + 6.13345458629035 * u4_t8_h17 + 6.13345458629035 * u4_t9_h17 + 6.57133863085795 * u4_t2_h18 + 6.57133863085795 * u4_t3_h18 + 6.57133863085795 * u4_t5_h18 + 6.57133863085795 * u4_t8_h18 + 6.57133863085795 * u4_t9_h18 + 6.07488798299281 * u4_t2_h19 + 6.07488798299281 * u4_t3_h19 + 6.07488798299281 * u4_t6_h19 + 6.07488798299281 * u4_t8_h19 + 6.07488798299281 * u4_t9_h19 + 5.54309091825746 * u4_t2_h20 + 5.54309091825746 * u4_t6_h20 + 5.54309091825746 * u4_t9_h20 + 4.94744369148809 * u4_t6_h21 + 5.79531401111106 * u4_t6_h22 + 5.79531401111106 * u4_t7_h22 + 5.58604317831018 * u4_t6_h23 + 5.58604317831018 * u4_t7_h23;
0 <= u4_t1_h1 <= 1;
0 <= u4_t1_h2 <= 1;
0 <= u4_t1_h3 <= 1;
0 <= u4_t1_h4 <= 1;
0 <= u4_t1_h5 <= 1;
0 <= u4_t1_h6 <= 1;
0 <= u4_t1_h7 <= 1;
0 <= u4_t1_h8 <= 1;
u4_t1_h1 + u4_t1_h2 + u4_t1_h3 + u4_t1_h4 + u4_t1_h5 + u4_t1_h6 + u4_t1_h7 + u4_t1_h8 = 1;
0 <= u4_t2_h11 <= 1;
0 <= u4_t2_h12 <= 1;
0 <= u4_t2_h13 <= 1;
0 <= u4_t2_h14 <= 1;
0 <= u4_t2_h15 <= 1;
0 <= u4_t2_h16 <= 1;
0 <= u4_t2_h17 <= 1;
0 <= u4_t2_h18 <= 1;
0 <= u4_t2_h19 <= 1;
0 <= u4_t2_h20 <= 1;
u4_t2_h11 + u4_t2_h12 + u4_t2_h13 + u4_t2_h14 + u4_t2_h15 + u4_t2_h16 + u4_t2_h17 + u4_t2_h18 + u4_t2_h19 + u4_t2_h20 = 2;
0 <= u4_t3_h12 <= 1;
0 <= u4_t3_h13 <= 1;
0 <= u4_t3_h14 <= 1;
0 <= u4_t3_h15 <= 1;
0 <= u4_t3_h16 <= 1;
0 <= u4_t3_h17 <= 1;
0 <= u4_t3_h18 <= 1;
0 <= u4_t3_h19 <= 1;
u4_t3_h12 + u4_t3_h13 + u4_t3_h14 + u4_t3_h15 + u4_t3_h16 + u4_t3_h17 + u4_t3_h18 + u4_t3_h19 = 3;
0 <= u4_t4_h11 <= 1;
0 <= u4_t4_h12 <= 1;
0 <= u4_t4_h13 <= 1;
0 <= u4_t4_h14 <= 1;
0 <= u4_t4_h15 <= 1;
0 <= u4_t4_h16 <= 1;
u4_t4_h11 + u4_t4_h12 + u4_t4_h13 + u4_t4_h14 + u4_t4_h15 + u4_t4_h16 = 3;
0 <= u4_t5_h16 <= 1;
0 <= u4_t5_h17 <= 1;
0 <= u4_t5_h18 <= 1;
u4_t5_h16 + u4_t5_h17 + u4_t5_h18 = 1;
0 <= u4_t6_h19 <= 1;
0 <= u4_t6_h20 <= 1;
0 <= u4_t6_h21 <= 1;
0 <= u4_t6_h22 <= 1;
0 <= u4_t6_h23 <= 1;
u4_t6_h19 + u4_t6_h20 + u4_t6_h21 + u4_t6_h22 + u4_t6_h23 = 3;
0 <= u4_t7_h22 <= 1;
0 <= u4_t7_h23 <= 1;
u4_t7_h22 + u4_t7_h23 = 1;
0 <= u4_t8_h12 <= 1;
0 <= u4_t8_h13 <= 1;
0 <= u4_t8_h14 <= 1;
0 <= u4_t8_h15 <= 1;
0 <= u4_t8_h16 <= 1;
0 <= u4_t8_h17 <= 1;
0 <= u4_t8_h18 <= 1;
0 <= u4_t8_h19 <= 1;
u4_t8_h12 + u4_t8_h13 + u4_t8_h14 + u4_t8_h15 + u4_t8_h16 + u4_t8_h17 + u4_t8_h18 + u4_t8_h19 = 2;
0 <= u4_t9_h8 <= 1;
0 <= u4_t9_h9 <= 1;
0 <= u4_t9_h10 <= 1;
0 <= u4_t9_h11 <= 1;
0 <= u4_t9_h12 <= 1;
0 <= u4_t9_h13 <= 1;
0 <= u4_t9_h14 <= 1;
0 <= u4_t9_h15 <= 1;
0 <= u4_t9_h16 <= 1;
0 <= u4_t9_h17 <= 1;
0 <= u4_t9_h18 <= 1;
0 <= u4_t9_h19 <= 1;
0 <= u4_t9_h20 <= 1;
u4_t9_h8 + u4_t9_h9 + u4_t9_h10 + u4_t9_h11 + u4_t9_h12 + u4_t9_h13 + u4_t9_h14 + u4_t9_h15 + u4_t9_h16 + u4_t9_h17 + u4_t9_h18 + u4_t9_h19 + u4_t9_h20 = 2;
0 <= u4_t10_h4 <= 1;
0 <= u4_t10_h5 <= 1;
0 <= u4_t10_h6 <= 1;
0 <= u4_t10_h7 <= 1;
0 <= u4_t10_h8 <= 1;
0 <= u4_t10_h9 <= 1;
0 <= u4_t10_h10 <= 1;
0 <= u4_t10_h11 <= 1;
0 <= u4_t10_h12 <= 1;
u4_t10_h4 + u4_t10_h5 + u4_t10_h6 + u4_t10_h7 + u4_t10_h8 + u4_t10_h9 + u4_t10_h10 + u4_t10_h11 + u4_t10_h12 = 2;
